
Gurobi 10.0.1 (linux64) logging started Sun Nov 26 16:18:59 2023

Set parameter LogFile to value "ArtificialInstance/ExperimentV2/S3T5K2/BaDo/gurobi91.txt"
Gurobi Optimizer version 10.0.1 build v10.0.1rc0 (linux64)

CPU model: AMD EPYC 7H12 64-Core Processor, instruction set [SSE2|AVX|AVX2]
Thread count: 128 physical cores, 128 logical processors, using up to 32 threads

Academic license 656792 - for non-commercial use only - registered to b.___@student.vu.nl
Optimize a model with 840 rows, 1360 columns and 4480 nonzeros
Model fingerprint: 0xbb360c66
Variable types: 0 continuous, 1360 integer (1360 binary)
Coefficient statistics:
  Matrix range     [1e+00, 1e+00]
  Objective range  [2e+00, 2e+01]
  Bounds range     [1e+00, 1e+00]
  RHS range        [1e+00, 1e+00]
Found heuristic solution: objective 574.3173526
Presolve time: 0.01s
Presolved: 840 rows, 1360 columns, 4480 nonzeros
Variable types: 0 continuous, 1360 integer (1360 binary)

Root relaxation: objective 3.799046e+01, 585 iterations, 0.01 seconds (0.00 work units)

    Nodes    |    Current Node    |     Objective Bounds      |     Work
 Expl Unexpl |  Obj  Depth IntInf | Incumbent    BestBd   Gap | It/Node Time

     0     0   37.99046    0  144  574.31735   37.99046  93.4%     -    0s
H    0     0                     203.5062013   37.99046  81.3%     -    0s
H    0     0                      85.2470763   37.99046  55.4%     -    0s
H    0     0                      65.6134878   45.41238  30.8%     -    0s
     0     0   45.41238    0  198   65.61349   45.41238  30.8%     -    0s
H    0     0                      62.1859013   45.41238  27.0%     -    0s
H    0     0                      61.2346797   51.55547  15.8%     -    0s
     0     0   51.55547    0  183   61.23468   51.55547  15.8%     -    0s
     0     0   53.90628    0  266   61.23468   53.90628  12.0%     -    0s
     0     0   54.55002    0  240   61.23468   54.55002  10.9%     -    0s
     0     0   54.83367    0  265   61.23468   54.83367  10.5%     -    0s
     0     0   54.84442    0  269   61.23468   54.84442  10.4%     -    0s
     0     0   54.84442    0  269   61.23468   54.84442  10.4%     -    0s
     0     0   55.36009    0  265   61.23468   55.36009  9.59%     -    0s
     0     0   55.43452    0  264   61.23468   55.43452  9.47%     -    0s
     0     0   55.43452    0  265   61.23468   55.43452  9.47%     -    0s
     0     0   55.67277    0  292   61.23468   55.67277  9.08%     -    0s
     0     0   55.68158    0  286   61.23468   55.68158  9.07%     -    0s
     0     0   55.68169    0  290   61.23468   55.68169  9.07%     -    0s
H    0     0                      59.6852548   56.16353  5.90%     -    0s
     0     0   56.16353    0  255   59.68525   56.16353  5.90%     -    0s
     0     0   56.18500    0  239   59.68525   56.18500  5.86%     -    0s
     0     0   56.19192    0  240   59.68525   56.19192  5.85%     -    0s
     0     0   56.19218    0  240   59.68525   56.19218  5.85%     -    0s
     0     0   56.19445    0  247   59.68525   56.19445  5.85%     -    0s
     0     0   56.19445    0  144   59.68525   56.19445  5.85%     -    0s
     0     0   56.19445    0  249   59.68525   56.19445  5.85%     -    0s
     0     0   56.19445    0  243   59.68525   56.19445  5.85%     -    0s
     0     0   56.20609    0  193   59.68525   56.20609  5.83%     -    0s
     0     0   56.25199    0  229   59.68525   56.25199  5.75%     -    0s
     0     0   56.25227    0  246   59.68525   56.25227  5.75%     -    0s
     0     0   56.77970    0  251   59.68525   56.77970  4.87%     -    0s
     0     0   56.84005    0  270   59.68525   56.84005  4.77%     -    0s
     0     0   56.84314    0  277   59.68525   56.84314  4.76%     -    0s
     0     0   56.84782    0  283   59.68525   56.84782  4.75%     -    0s
     0     0   56.84782    0  283   59.68525   56.84782  4.75%     -    0s
     0     0   56.85170    0  280   59.68525   56.85170  4.75%     -    0s
     0     0   56.85170    0  280   59.68525   56.85170  4.75%     -    0s
     0     2   56.86843    0  274   59.68525   56.86843  4.72%     -    0s

Cutting planes:
  Gomory: 12
  Zero half: 42
  RLT: 16

Explored 33 nodes (7119 simplex iterations) in 0.81 seconds (0.39 work units)
Thread count was 32 (of 128 available processors)

Solution count 7: 59.6853 61.2347 62.1859 ... 574.317

Optimal solution found (tolerance 1.00e-04)
Best objective 5.968525476592e+01, best bound 5.968525436140e+01, gap 0.0000%
